examples/Knap/data/easy/input55_5.txt
ITEM 94 104
ITEM 40 50
ITEM 8 18
ITEM 3 13
ITEM 24 34
ITEM 4 14
ITEM 86 96
ITEM 98 108
ITEM 2 12
ITEM 59 69
ITEM 34 44
ITEM 73 83
ITEM 57 67
ITEM 28 38
ITEM 83 93
ITEM 25 35
ITEM 74 84
ITEM 65 75
ITEM 9 19
ITEM 88 98
ITEM 71 81
ITEM 86 96
ITEM 86 96
ITEM 41 51
ITEM 19 29
ITEM 64 74
ITEM 15 25
ITEM 19 29
ITEM 36 46
ITEM 79 89
ITEM 23 33
ITEM 31 41
ITEM 19 29
ITEM 30 40
ITEM 33 43
ITEM 43 53
ITEM 34 44
ITEM 20 30
ITEM 41 51
ITEM 35 45
ITEM 79 89
ITEM 75 85
ITEM 8 18
ITEM 36 46
ITEM 3 13
ITEM 91 101
ITEM 60 70
ITEM 77 87
ITEM 56 66
ITEM 68 78
ITEM 66 76
ITEM 27 37
ITEM 55 65
ITEM 52 62
ITEM 68 78
CAPACITY 1638
